&CONTROL
  calculation = 'scf'
  etot_conv_thr =   4.0000000000d-05
  forc_conv_thr =   1.0000000000d-04
  outdir = 'temp'
  prefix = 'hexsi'
  pseudo_dir = 'pseudo'
  verbosity = 'high'
/
&SYSTEM
  degauss =   1.4699723600d-02
  ecutrho =   240
  ecutwfc =   65
  ibrav = 0
  nat = 4
  nosym = .true.
  noinv = .true.
  occupations = 'smearing'
  smearing = 'cold' 
  ntyp = 1,
  nbnd = 20
/
&ELECTRONS
  conv_thr =   8.0000000000d-10
  electron_maxstep = 80
  mixing_beta =   4.0000000000d-01
/
K_POINTS automatic
10 10 5 0 0 0
CELL_PARAMETERS angstrom
      3.8313174600       0.0000000000       0.0000000000
     -1.9156587300       3.3180182503       0.0000000000
      0.0000000000       0.0000000000       6.3326220000
ATOMIC_SPECIES
Si     28.0855 Si.pz-hgh.UPF
ATOMIC_POSITIONS crystal
Si           0.3333333300       0.6666666700       0.0630095000 
Si           0.6666666700       0.3333333300       0.5630095000 
Si           0.3333333300       0.6666666700       0.4369905000 
Si           0.6666666700       0.3333333300       0.9369905000 

