&BANDS
  prefix   = 'hexge'
  outdir   = 'temp'
  filband  = 'hexge.bands'
  lp       = .true.
  filp     = 'hexge.dvec'
/
