&INPUTPH
  outdir = 'temp'
  prefix = 'hexsi'
  tr2_ph = 1d-12
  verbosity = 'high'
  fildyn = 'hexsi.dyn'
  fildvscf = 'dvscf'
  electron_phonon = 'epc'
/
0.0 0.0 0.0

